nK = 1579;
nT = 6;
nI = 14;
L = 35;
TT = 389;
np = 1;
nc = 3;
b = [45, 35, 55, 38, 54, 37, 64, 46, 43, 64, 27, 61, 52, 58];
d = [131, 130, 132, 66, 101, 142, 107, 80, 123, 143, 141, 125, 112, 102];
m = [1.2, 1.5, 1.4, 1, 1.9, 2.4, 2.3, 1.5, 2.3, 2.1, 1.5, 1.8, 2.1, 1.3];
pt = [0.29, 0.32, 0.24, 0.32, 0.31, 0.35];
st = [16.82, 14.72, 10.08, 15.68, 17.98, 14.35];
arc = {<1, 0, 1, 1, 0, 0, 0, [1, 1, 1, 1, 1, 1]>, <2, 1, 2, 1, 0, 0, 0, [1, 1, 1, 1, 1, 1]>, <3, 2, 3, 1, 0, 0, 0, [1, 1, 1, 1, 1, 1]>, <4, 3, 4, 1, 0, 0, 0, [1, 1, 1, 1, 1, 1]>, <5, 4, 5, 1, 0, 0, 0, [1, 1, 1, 1, 1, 1]>, <6, 5, 6, 1, 0, 0, 0, [1, 1, 1, 1, 1, 1]>, <7, 6, 7, 1, 0, 0, 0, [1, 1, 1, 1, 1, 1]>, <8, 7, 8, 1, 0, 0, 0, [1, 1, 1, 1, 1, 1]>, <9, 8, 9, 1, 0, 0, 0, [1, 1, 1, 1, 1, 1]>, <10, 9, 10, 1, 0, 0, 0, [1, 1, 1, 1, 1, 1]>, <11, 10, 11, 1, 0, 0, 0, [1, 1, 1, 1, 1, 1]>, <12, 11, 12, 1, 0, 0, 0, [1, 1, 1, 1, 1, 1]>, <13, 12, 13, 1, 0, 0, 0, [1, 1, 1, 1, 1, 1]>, <14, 13, 14, 1, 0, 0, 0, [1, 1, 1, 1, 1, 1]>, <15, 14, 15, 1, 0, 0, 0, [1, 1, 1, 1, 1, 1]>, <16, 15, 16, 1, 0, 0, 0, [1, 1, 1, 1, 1, 1]>, <17, 16, 17, 1, 0, 0, 0, [1, 1, 1, 1, 1, 1]>, <18, 17, 18, 1, 0, 0, 0, [1, 1, 1, 1, 1, 1]>, <19, 18, 19, 1, 0, 0, 0, [1, 1, 1, 1, 1, 1]>, <20, 19, 20, 1, 0, 0, 0, [1, 1, 1, 1, 1, 1]>, <21, 20, 21, 1, 0, 0, 0, [1, 1, 1, 1, 1, 1]>, <22, 21, 22, 1, 0, 0, 0, [1, 1, 1, 1, 1, 1]>, <23, 22, 23, 1, 0, 0, 0, [1, 1, 1, 1, 1, 1]>, <24, 23, 24, 1, 0, 0, 0, [1, 1, 1, 1, 1, 1]>, <25, 24, 25, 1, 0, 0, 0, [1, 1, 1, 1, 1, 1]>, <26, 25, 26, 1, 0, 0, 0, [1, 1, 1, 1, 1, 1]>, <27, 26, 27, 1, 0, 0, 0, [1, 1, 1, 1, 1, 1]>, <28, 27, 28, 1, 0, 0, 0, [1, 1, 1, 1, 1, 1]>, <29, 28, 29, 1, 0, 0, 0, [1, 1, 1, 1, 1, 1]>, <30, 29, 30, 1, 0, 0, 0, [1, 1, 1, 1, 1, 1]>, <31, 30, 31, 1, 0, 0, 0, [1, 1, 1, 1, 1, 1]>, <32, 31, 32, 1, 0, 0, 0, [1, 1, 1, 1, 1, 1]>, <33, 32, 33, 1, 0, 0, 0, [1, 1, 1, 1, 1, 1]>, <34, 33, 34, 1, 0, 0, 0, [1, 1, 1, 1, 1, 1]>, <35, 34, 35, 1, 0, 0, 0, [1, 1, 1, 1, 1, 1]>, <36, 0, 17, 17, 1, 0, 0, [1, 1, 1, 1, 0, 0]>, <37, 1, 18, 17, 1, 0, 0, [1, 1, 1, 1, 0, 0]>, <38, 2, 19, 17, 1, 0, 0, [1, 1, 1, 1, 0, 0]>, <39, 3, 20, 17, 1, 0, 0, [1, 1, 1, 1, 0, 0]>, <40, 4, 21, 17, 1, 0, 0, [1, 1, 1, 1, 0, 0]>, <41, 5, 22, 17, 1, 0, 0, [1, 1, 1, 1, 0, 0]>, <42, 6, 23, 17, 1, 0, 0, [1, 1, 1, 1, 0, 0]>, <43, 9, 26, 17, 1, 0, 0, [1, 1, 1, 1, 0, 0]>, <44, 10, 27, 17, 1, 0, 0, [1, 1, 1, 1, 0, 0]>, <45, 11, 28, 17, 1, 0, 0, [1, 1, 1, 1, 0, 0]>, <46, 12, 29, 17, 1, 0, 0, [1, 1, 1, 1, 0, 0]>, <47, 13, 30, 17, 1, 0, 0, [1, 1, 1, 1, 0, 0]>, <48, 14, 31, 17, 1, 0, 0, [1, 1, 1, 1, 0, 0]>, <49, 15, 32, 17, 1, 0, 0, [1, 1, 1, 1, 0, 0]>, <50, 16, 33, 17, 1, 0, 0, [1, 1, 1, 1, 0, 0]>, <51, 17, 34, 17, 1, 0, 0, [1, 1, 1, 1, 0, 0]>, <52, 18, 35, 17, 1, 0, 0, [1, 1, 1, 1, 0, 0]>, <53, 2, 17, 15, 2, 0, 0, [1, 1, 1, 0, 0, 1]>, <54, 3, 18, 15, 2, 0, 0, [1, 1, 1, 0, 0, 1]>, <55, 4, 19, 15, 2, 0, 0, [1, 1, 1, 0, 0, 1]>, <56, 5, 20, 15, 2, 0, 0, [1, 1, 1, 0, 0, 1]>, <57, 6, 21, 15, 2, 0, 0, [1, 1, 1, 0, 0, 1]>, <58, 11, 26, 15, 2, 0, 0, [1, 1, 1, 0, 0, 1]>, <59, 12, 27, 15, 2, 0, 0, [1, 1, 1, 0, 0, 1]>, <60, 13, 28, 15, 2, 0, 0, [1, 1, 1, 0, 0, 1]>, <61, 14, 29, 15, 2, 0, 0, [1, 1, 1, 0, 0, 1]>, <62, 15, 30, 15, 2, 0, 0, [1, 1, 1, 0, 0, 1]>, <63, 16, 31, 15, 2, 0, 0, [1, 1, 1, 0, 0, 1]>, <64, 17, 32, 15, 2, 0, 0, [1, 1, 1, 0, 0, 1]>, <65, 18, 33, 15, 2, 0, 0, [1, 1, 1, 0, 0, 1]>, <66, 19, 34, 15, 2, 0, 0, [1, 1, 1, 0, 0, 1]>, <67, 20, 35, 15, 2, 0, 0, [1, 1, 1, 0, 0, 1]>, <68, 3, 17, 14, 3, 0, 0, [1, 1, 1, 1, 0, 0]>, <69, 4, 18, 14, 3, 0, 0, [1, 1, 1, 1, 0, 0]>, <70, 5, 19, 14, 3, 0, 0, [1, 1, 1, 1, 0, 0]>, <71, 6, 20, 14, 3, 0, 0, [1, 1, 1, 1, 0, 0]>, <72, 12, 26, 14, 3, 0, 0, [1, 1, 1, 1, 0, 0]>, <73, 13, 27, 14, 3, 0, 0, [1, 1, 1, 1, 0, 0]>, <74, 14, 28, 14, 3, 0, 0, [1, 1, 1, 1, 0, 0]>, <75, 15, 29, 14, 3, 0, 0, [1, 1, 1, 1, 0, 0]>, <76, 17, 31, 14, 3, 0, 0, [1, 1, 1, 1, 0, 0]>, <77, 18, 32, 14, 3, 0, 0, [1, 1, 1, 1, 0, 0]>, <78, 19, 33, 14, 3, 0, 0, [1, 1, 1, 1, 0, 0]>, <79, 20, 34, 14, 3, 0, 0, [1, 1, 1, 1, 0, 0]>, <80, 21, 35, 14, 3, 0, 0, [1, 1, 1, 1, 0, 0]>, <81, 0, 17, 17, 4, 0, 0, [1, 1, 1, 0, 0, 1]>, <82, 1, 18, 17, 4, 0, 0, [1, 1, 1, 0, 0, 1]>, <83, 2, 19, 17, 4, 0, 0, [1, 1, 1, 0, 0, 1]>, <84, 3, 20, 17, 4, 0, 0, [1, 1, 1, 0, 0, 1]>, <85, 4, 21, 17, 4, 0, 0, [1, 1, 1, 0, 0, 1]>, <86, 5, 22, 17, 4, 0, 0, [1, 1, 1, 0, 0, 1]>, <87, 6, 23, 17, 4, 0, 0, [1, 1, 1, 0, 0, 1]>, <88, 9, 26, 17, 4, 0, 0, [1, 1, 1, 0, 0, 1]>, <89, 10, 27, 17, 4, 0, 0, [1, 1, 1, 0, 0, 1]>, <90, 11, 28, 17, 4, 0, 0, [1, 1, 1, 0, 0, 1]>, <91, 12, 29, 17, 4, 0, 0, [1, 1, 1, 0, 0, 1]>, <92, 13, 30, 17, 4, 0, 0, [1, 1, 1, 0, 0, 1]>, <93, 14, 31, 17, 4, 0, 0, [1, 1, 1, 0, 0, 1]>, <94, 15, 32, 17, 4, 0, 0, [1, 1, 1, 0, 0, 1]>, <95, 16, 33, 17, 4, 0, 0, [1, 1, 1, 0, 0, 1]>, <96, 17, 34, 17, 4, 0, 0, [1, 1, 1, 0, 0, 1]>, <97, 18, 35, 17, 4, 0, 0, [1, 1, 1, 0, 0, 1]>, <98, 0, 17, 17, 5, 0, 0, [1, 0, 0, 1, 1, 1]>, <99, 1, 18, 17, 5, 0, 0, [1, 0, 0, 1, 1, 1]>, <100, 2, 19, 17, 5, 0, 0, [1, 0, 0, 1, 1, 1]>, <101, 3, 20, 17, 5, 0, 0, [1, 0, 0, 1, 1, 1]>, <102, 4, 21, 17, 5, 0, 0, [1, 0, 0, 1, 1, 1]>, <103, 5, 22, 17, 5, 0, 0, [1, 0, 0, 1, 1, 1]>, <104, 6, 23, 17, 5, 0, 0, [1, 0, 0, 1, 1, 1]>, <105, 9, 26, 17, 5, 0, 0, [1, 0, 0, 1, 1, 1]>, <106, 10, 27, 17, 5, 0, 0, [1, 0, 0, 1, 1, 1]>, <107, 11, 28, 17, 5, 0, 0, [1, 0, 0, 1, 1, 1]>, <108, 12, 29, 17, 5, 0, 0, [1, 0, 0, 1, 1, 1]>, <109, 13, 30, 17, 5, 0, 0, [1, 0, 0, 1, 1, 1]>, <110, 14, 31, 17, 5, 0, 0, [1, 0, 0, 1, 1, 1]>, <111, 15, 32, 17, 5, 0, 0, [1, 0, 0, 1, 1, 1]>, <112, 16, 33, 17, 5, 0, 0, [1, 0, 0, 1, 1, 1]>, <113, 17, 34, 17, 5, 0, 0, [1, 0, 0, 1, 1, 1]>, <114, 18, 35, 17, 5, 0, 0, [1, 0, 0, 1, 1, 1]>, <115, 2, 17, 15, 6, 0, 1, [0, 1, 1, 1, 1, 0]>, <116, 3, 18, 15, 6, 0, 1, [0, 1, 1, 1, 1, 0]>, <117, 4, 19, 15, 6, 0, 1, [0, 1, 1, 1, 1, 0]>, <118, 5, 20, 15, 6, 0, 1, [0, 1, 1, 1, 1, 0]>, <119, 6, 21, 15, 6, 0, 1, [0, 1, 1, 1, 1, 0]>, <120, 11, 26, 15, 6, 0, 1, [0, 1, 1, 1, 1, 0]>, <121, 12, 27, 15, 6, 0, 1, [0, 1, 1, 1, 1, 0]>, <122, 13, 28, 15, 6, 0, 1, [0, 1, 1, 1, 1, 0]>, <123, 14, 29, 15, 6, 0, 1, [0, 1, 1, 1, 1, 0]>, <124, 15, 30, 15, 6, 0, 1, [0, 1, 1, 1, 1, 0]>, <125, 16, 31, 15, 6, 0, 1, [0, 1, 1, 1, 1, 0]>, <126, 17, 32, 15, 6, 0, 1, [0, 1, 1, 1, 1, 0]>, <127, 18, 33, 15, 6, 0, 1, [0, 1, 1, 1, 1, 0]>, <128, 19, 34, 15, 6, 0, 1, [0, 1, 1, 1, 1, 0]>, <129, 20, 35, 15, 6, 0, 1, [0, 1, 1, 1, 1, 0]>, <130, 1, 17, 16, 7, 1, 0, [1, 1, 0, 0, 1, 1]>, <131, 2, 18, 16, 7, 1, 0, [1, 1, 0, 0, 1, 1]>, <132, 3, 19, 16, 7, 1, 0, [1, 1, 0, 0, 1, 1]>, <133, 4, 20, 16, 7, 1, 0, [1, 1, 0, 0, 1, 1]>, <134, 5, 21, 16, 7, 1, 0, [1, 1, 0, 0, 1, 1]>, <135, 6, 22, 16, 7, 1, 0, [1, 1, 0, 0, 1, 1]>, <136, 10, 26, 16, 7, 1, 0, [1, 1, 0, 0, 1, 1]>, <137, 11, 27, 16, 7, 1, 0, [1, 1, 0, 0, 1, 1]>, <138, 12, 28, 16, 7, 1, 0, [1, 1, 0, 0, 1, 1]>, <139, 13, 29, 16, 7, 1, 0, [1, 1, 0, 0, 1, 1]>, <140, 14, 30, 16, 7, 1, 0, [1, 1, 0, 0, 1, 1]>, <141, 15, 31, 16, 7, 1, 0, [1, 1, 0, 0, 1, 1]>, <142, 16, 32, 16, 7, 1, 0, [1, 1, 0, 0, 1, 1]>, <143, 17, 33, 16, 7, 1, 0, [1, 1, 0, 0, 1, 1]>, <144, 18, 34, 16, 7, 1, 0, [1, 1, 0, 0, 1, 1]>, <145, 19, 35, 16, 7, 1, 0, [1, 1, 0, 0, 1, 1]>, <146, 3, 17, 14, 8, 0, 0, [1, 1, 1, 0, 0, 1]>, <147, 4, 18, 14, 8, 0, 0, [1, 1, 1, 0, 0, 1]>, <148, 5, 19, 14, 8, 0, 0, [1, 1, 1, 0, 0, 1]>, <149, 6, 20, 14, 8, 0, 0, [1, 1, 1, 0, 0, 1]>, <150, 12, 26, 14, 8, 0, 0, [1, 1, 1, 0, 0, 1]>, <151, 13, 27, 14, 8, 0, 0, [1, 1, 1, 0, 0, 1]>, <152, 14, 28, 14, 8, 0, 0, [1, 1, 1, 0, 0, 1]>, <153, 15, 29, 14, 8, 0, 0, [1, 1, 1, 0, 0, 1]>, <154, 17, 31, 14, 8, 0, 0, [1, 1, 1, 0, 0, 1]>, <155, 18, 32, 14, 8, 0, 0, [1, 1, 1, 0, 0, 1]>, <156, 19, 33, 14, 8, 0, 0, [1, 1, 1, 0, 0, 1]>, <157, 20, 34, 14, 8, 0, 0, [1, 1, 1, 0, 0, 1]>, <158, 21, 35, 14, 8, 0, 0, [1, 1, 1, 0, 0, 1]>, <159, 0, 17, 17, 9, 1, 0, [0, 1, 1, 1, 1, 0]>, <160, 1, 18, 17, 9, 1, 0, [0, 1, 1, 1, 1, 0]>, <161, 2, 19, 17, 9, 1, 0, [0, 1, 1, 1, 1, 0]>, <162, 3, 20, 17, 9, 1, 0, [0, 1, 1, 1, 1, 0]>, <163, 4, 21, 17, 9, 1, 0, [0, 1, 1, 1, 1, 0]>, <164, 5, 22, 17, 9, 1, 0, [0, 1, 1, 1, 1, 0]>, <165, 6, 23, 17, 9, 1, 0, [0, 1, 1, 1, 1, 0]>, <166, 9, 26, 17, 9, 1, 0, [0, 1, 1, 1, 1, 0]>, <167, 10, 27, 17, 9, 1, 0, [0, 1, 1, 1, 1, 0]>, <168, 11, 28, 17, 9, 1, 0, [0, 1, 1, 1, 1, 0]>, <169, 12, 29, 17, 9, 1, 0, [0, 1, 1, 1, 1, 0]>, <170, 13, 30, 17, 9, 1, 0, [0, 1, 1, 1, 1, 0]>, <171, 14, 31, 17, 9, 1, 0, [0, 1, 1, 1, 1, 0]>, <172, 15, 32, 17, 9, 1, 0, [0, 1, 1, 1, 1, 0]>, <173, 16, 33, 17, 9, 1, 0, [0, 1, 1, 1, 1, 0]>, <174, 17, 34, 17, 9, 1, 0, [0, 1, 1, 1, 1, 0]>, <175, 18, 35, 17, 9, 1, 0, [0, 1, 1, 1, 1, 0]>, <176, 0, 18, 18, 10, 0, 0, [1, 0, 0, 1, 1, 1]>, <177, 1, 19, 18, 10, 0, 0, [1, 0, 0, 1, 1, 1]>, <178, 2, 20, 18, 10, 0, 0, [1, 0, 0, 1, 1, 1]>, <179, 3, 21, 18, 10, 0, 0, [1, 0, 0, 1, 1, 1]>, <180, 4, 22, 18, 10, 0, 0, [1, 0, 0, 1, 1, 1]>, <181, 5, 23, 18, 10, 0, 0, [1, 0, 0, 1, 1, 1]>, <182, 6, 24, 18, 10, 0, 0, [1, 0, 0, 1, 1, 1]>, <183, 8, 26, 18, 10, 0, 0, [1, 0, 0, 1, 1, 1]>, <184, 9, 27, 18, 10, 0, 0, [1, 0, 0, 1, 1, 1]>, <185, 10, 28, 18, 10, 0, 0, [1, 0, 0, 1, 1, 1]>, <186, 11, 29, 18, 10, 0, 0, [1, 0, 0, 1, 1, 1]>, <187, 12, 30, 18, 10, 0, 0, [1, 0, 0, 1, 1, 1]>, <188, 13, 31, 18, 10, 0, 0, [1, 0, 0, 1, 1, 1]>, <189, 14, 32, 18, 10, 0, 0, [1, 0, 0, 1, 1, 1]>, <190, 15, 33, 18, 10, 0, 0, [1, 0, 0, 1, 1, 1]>, <191, 16, 34, 18, 10, 0, 0, [1, 0, 0, 1, 1, 1]>, <192, 17, 35, 18, 10, 0, 0, [1, 0, 0, 1, 1, 1]>, <193, 0, 17, 17, 11, 1, 0, [1, 1, 1, 0, 0, 1]>, <194, 1, 18, 17, 11, 1, 0, [1, 1, 1, 0, 0, 1]>, <195, 2, 19, 17, 11, 1, 0, [1, 1, 1, 0, 0, 1]>, <196, 3, 20, 17, 11, 1, 0, [1, 1, 1, 0, 0, 1]>, <197, 4, 21, 17, 11, 1, 0, [1, 1, 1, 0, 0, 1]>, <198, 5, 22, 17, 11, 1, 0, [1, 1, 1, 0, 0, 1]>, <199, 6, 23, 17, 11, 1, 0, [1, 1, 1, 0, 0, 1]>, <200, 9, 26, 17, 11, 1, 0, [1, 1, 1, 0, 0, 1]>, <201, 10, 27, 17, 11, 1, 0, [1, 1, 1, 0, 0, 1]>, <202, 11, 28, 17, 11, 1, 0, [1, 1, 1, 0, 0, 1]>, <203, 12, 29, 17, 11, 1, 0, [1, 1, 1, 0, 0, 1]>, <204, 13, 30, 17, 11, 1, 0, [1, 1, 1, 0, 0, 1]>, <205, 14, 31, 17, 11, 1, 0, [1, 1, 1, 0, 0, 1]>, <206, 15, 32, 17, 11, 1, 0, [1, 1, 1, 0, 0, 1]>, <207, 16, 33, 17, 11, 1, 0, [1, 1, 1, 0, 0, 1]>, <208, 17, 34, 17, 11, 1, 0, [1, 1, 1, 0, 0, 1]>, <209, 18, 35, 17, 11, 1, 0, [1, 1, 1, 0, 0, 1]>, <210, 0, 17, 17, 12, 0, 0, [1, 1, 1, 1, 0, 0]>, <211, 1, 18, 17, 12, 0, 0, [1, 1, 1, 1, 0, 0]>, <212, 2, 19, 17, 12, 0, 0, [1, 1, 1, 1, 0, 0]>, <213, 3, 20, 17, 12, 0, 0, [1, 1, 1, 1, 0, 0]>, <214, 4, 21, 17, 12, 0, 0, [1, 1, 1, 1, 0, 0]>, <215, 5, 22, 17, 12, 0, 0, [1, 1, 1, 1, 0, 0]>, <216, 6, 23, 17, 12, 0, 0, [1, 1, 1, 1, 0, 0]>, <217, 9, 26, 17, 12, 0, 0, [1, 1, 1, 1, 0, 0]>, <218, 10, 27, 17, 12, 0, 0, [1, 1, 1, 1, 0, 0]>, <219, 11, 28, 17, 12, 0, 0, [1, 1, 1, 1, 0, 0]>, <220, 12, 29, 17, 12, 0, 0, [1, 1, 1, 1, 0, 0]>, <221, 13, 30, 17, 12, 0, 0, [1, 1, 1, 1, 0, 0]>, <222, 14, 31, 17, 12, 0, 0, [1, 1, 1, 1, 0, 0]>, <223, 15, 32, 17, 12, 0, 0, [1, 1, 1, 1, 0, 0]>, <224, 16, 33, 17, 12, 0, 0, [1, 1, 1, 1, 0, 0]>, <225, 17, 34, 17, 12, 0, 0, [1, 1, 1, 1, 0, 0]>, <226, 18, 35, 17, 12, 0, 0, [1, 1, 1, 1, 0, 0]>, <227, 0, 18, 18, 13, 0, 0, [1, 0, 0, 1, 1, 1]>, <228, 1, 19, 18, 13, 0, 0, [1, 0, 0, 1, 1, 1]>, <229, 2, 20, 18, 13, 0, 0, [1, 0, 0, 1, 1, 1]>, <230, 3, 21, 18, 13, 0, 0, [1, 0, 0, 1, 1, 1]>, <231, 4, 22, 18, 13, 0, 0, [1, 0, 0, 1, 1, 1]>, <232, 5, 23, 18, 13, 0, 0, [1, 0, 0, 1, 1, 1]>, <233, 6, 24, 18, 13, 0, 0, [1, 0, 0, 1, 1, 1]>, <234, 8, 26, 18, 13, 0, 0, [1, 0, 0, 1, 1, 1]>, <235, 9, 27, 18, 13, 0, 0, [1, 0, 0, 1, 1, 1]>, <236, 10, 28, 18, 13, 0, 0, [1, 0, 0, 1, 1, 1]>, <237, 11, 29, 18, 13, 0, 0, [1, 0, 0, 1, 1, 1]>, <238, 12, 30, 18, 13, 0, 0, [1, 0, 0, 1, 1, 1]>, <239, 13, 31, 18, 13, 0, 0, [1, 0, 0, 1, 1, 1]>, <240, 14, 32, 18, 13, 0, 0, [1, 0, 0, 1, 1, 1]>, <241, 15, 33, 18, 13, 0, 0, [1, 0, 0, 1, 1, 1]>, <242, 16, 34, 18, 13, 0, 0, [1, 0, 0, 1, 1, 1]>, <243, 17, 35, 18, 13, 0, 0, [1, 0, 0, 1, 1, 1]>, <244, 3, 17, 14, 14, 0, 1, [0, 0, 1, 1, 1, 1]>, <245, 4, 18, 14, 14, 0, 1, [0, 0, 1, 1, 1, 1]>, <246, 5, 19, 14, 14, 0, 1, [0, 0, 1, 1, 1, 1]>, <247, 6, 20, 14, 14, 0, 1, [0, 0, 1, 1, 1, 1]>, <248, 12, 26, 14, 14, 0, 1, [0, 0, 1, 1, 1, 1]>, <249, 13, 27, 14, 14, 0, 1, [0, 0, 1, 1, 1, 1]>, <250, 14, 28, 14, 14, 0, 1, [0, 0, 1, 1, 1, 1]>, <251, 15, 29, 14, 14, 0, 1, [0, 0, 1, 1, 1, 1]>, <252, 17, 31, 14, 14, 0, 1, [0, 0, 1, 1, 1, 1]>, <253, 18, 32, 14, 14, 0, 1, [0, 0, 1, 1, 1, 1]>, <254, 19, 33, 14, 14, 0, 1, [0, 0, 1, 1, 1, 1]>, <255, 20, 34, 14, 14, 0, 1, [0, 0, 1, 1, 1, 1]>, <256, 21, 35, 14, 14, 0, 1, [0, 0, 1, 1, 1, 1]>};
